120
150
49
49
47
54
45
45
58
59
44
56
49
42
54
52
43
49
59
60
41
51
59
44
47
48
47
55
41
41
41
54
45
51
41
41
41
50
41
60
48
42
44
58
48
42
55
53
50
41
59
57
41
53
57
57
45
48
41
42
41
51
49
50
45
46
59
54
52
44
41
41
41
51
48
51
45
49
56
42
54
55
45
50
50
41
59
54
44
52
41
51
60
53
60
43
47
41
51
59
50
41
49
50
51
41
53
60
41
49
48
58
44
45
56
49
42
57
51
47
45
55
